
Gurobi 7.5.2 (linux64) logging started Sat Jul  7 16:13:32 2018

Changed value of parameter LogFile to result/ilp/simNo_7-n_100-m_40-s_7-minVAF_0.05-cov_10000-k_1-fn_0.15-fp_0.0001-na_0.15.ILP.gurobiSolverLog
   Prev: gurobi.log  Default: 
Changed value of parameter TimeLimit to 86400.0
   Prev: 1e+100  Min: 0.0  Max: 1e+100  Default: 1e+100
Optimize a model with 639293 rows, 10765 columns and 1940420 nonzeros
Variable types: 0 continuous, 10765 integer (10765 binary)
Coefficient statistics:
  Matrix range     [2e-05, 4e+00]
  Objective range  [2e+00, 2e+01]
  Bounds range     [1e+00, 1e+00]
  RHS range        [8e-02, 2e+00]
Found heuristic solution: objective -4993.119612
Presolve removed 138840 rows and 1100 columns (presolve time = 5s) ...
Presolve removed 139494 rows and 1100 columns (presolve time = 14s) ...
Presolve removed 204894 rows and 1754 columns (presolve time = 16s) ...
Presolve removed 204894 rows and 1754 columns (presolve time = 21s) ...
Presolve removed 204894 rows and 1754 columns
Presolve time: 20.66s
Presolved: 434399 rows, 9011 columns, 1305784 nonzeros
Variable types: 0 continuous, 9011 integer (9011 binary)
Presolved: 9011 rows, 443410 columns, 1314795 nonzeros

Presolve removed 9011 rows and 443410 columns

Root simplex log...

Iteration    Objective       Primal Inf.    Dual Inf.      Time
       0    1.6471995e+01   0.000000e+00   2.614200e+04     25s
    8077   -8.6940933e+01   0.000000e+00   0.000000e+00     27s
    8077   -8.6940933e+01   0.000000e+00   0.000000e+00     27s

Root relaxation: objective -8.694093e+01, 8077 iterations, 5.01 seconds
Total elapsed time = 34.05s
Total elapsed time = 42.67s

    Nodes    |    Current Node    |     Objective Bounds      |     Work
 Expl Unexpl |  Obj  Depth IntInf | Incumbent    BestBd   Gap | It/Node Time

     0     0  -86.94093    0  338 -4993.1196  -86.94093  98.3%     -   45s
H    0     0                    -115.0506694  -86.94093  24.4%     -   49s
H    0     0                    -109.3246303  -86.94093  20.5%     -   50s
H    0     0                     -97.1938504  -86.94093  10.5%     -   51s
     0     0  -88.53336    0  450  -97.19385  -88.53336  8.91%     -   55s
     0     0  -90.26439    0  459  -97.19385  -90.26439  7.13%     -   67s
     0     0  -90.36131    0  462  -97.19385  -90.36131  7.03%     -   72s
     0     0  -90.55516    0  400  -97.19385  -90.55516  6.83%     -   97s
     0     0  -90.55516    0  327  -97.19385  -90.55516  6.83%     -  147s
     0     0  -91.31333    0  379  -97.19385  -91.31333  6.05%     -  147s
     0     0  -91.31333    0  387  -97.19385  -91.31333  6.05%     -  149s
     0     0  -93.11633    0  405  -97.19385  -93.11633  4.20%     -  151s
     0     0  -93.11633    0  317  -97.19385  -93.11633  4.20%     -  154s
     0     0  -93.11633    0  433  -97.19385  -93.11633  4.20%     -  155s
     0     0  -93.11633    0  430  -97.19385  -93.11633  4.20%     -  155s
     0     0  -93.83543    0  290  -97.19385  -93.83543  3.46%     -  156s
     0     0  -94.01351    0  326  -97.19385  -94.01351  3.27%     -  157s
     0     0  -94.11534    0  327  -97.19385  -94.11534  3.17%     -  157s
     0     0  -94.14967    0  375  -97.19385  -94.14967  3.13%     -  157s
     0     0  -94.49310    0  389  -97.19385  -94.49310  2.78%     -  158s
     0     0  -94.49310    0  285  -97.19385  -94.49310  2.78%     -  159s
     0     0  -94.49310    0  268  -97.19385  -94.49310  2.78%     -  160s
     0     0  -94.49310    0  269  -97.19385  -94.49310  2.78%     -  160s
     0     0  -94.54294    0  282  -97.19385  -94.54294  2.73%     -  160s
     0     0  -94.54294    0  283  -97.19385  -94.54294  2.73%     -  160s
     0     0  -94.67777    0  340  -97.19385  -94.67777  2.59%     -  161s
     0     0  -94.67777    0  262  -97.19385  -94.67777  2.59%     -  161s
     0     0  -94.67777    0  321  -97.19385  -94.67777  2.59%     -  161s
     0     0  -94.71859    0  335  -97.19385  -94.71859  2.55%     -  161s
     0     0  -94.75421    0  379  -97.19385  -94.75421  2.51%     -  161s
     0     0  -94.75421    0  395  -97.19385  -94.75421  2.51%     -  162s
     0     0  -94.94589    0  304  -97.19385  -94.94589  2.31%     -  162s
     0     0  -94.97649    0  370  -97.19385  -94.97649  2.28%     -  162s
     0     0  -94.97864    0  386  -97.19385  -94.97864  2.28%     -  162s
     0     0  -95.03390    0  340  -97.19385  -95.03390  2.22%     -  162s
     0     0  -95.03895    0  339  -97.19385  -95.03895  2.22%     -  162s
     0     0  -95.04413    0  344  -97.19385  -95.04413  2.21%     -  162s
     0     0  -95.04484    0  340  -97.19385  -95.04484  2.21%     -  162s
     0     0  -95.07832    0  325  -97.19385  -95.07832  2.18%     -  162s
     0     0  -95.27406    0  334  -97.19385  -95.27406  1.98%     -  162s
     0     0  -95.28084    0  194  -97.19385  -95.28084  1.97%     -  162s
     0     0  -95.28084    0  198  -97.19385  -95.28084  1.97%     -  162s
     0     0  -95.35305    0  254  -97.19385  -95.35305  1.89%     -  162s
     0     0  -95.35305    0  254  -97.19385  -95.35305  1.89%     -  162s
     0     0  -95.58978    0  390  -97.19385  -95.58978  1.65%     -  163s
     0     0  -95.59097    0  389  -97.19385  -95.59097  1.65%     -  163s
     0     0  -95.59097    0  389  -97.19385  -95.59097  1.65%     -  163s
     0     0  -95.59830    0  313  -97.19385  -95.59830  1.64%     -  163s
     0     0  -95.61438    0  342  -97.19385  -95.61438  1.63%     -  163s
     0     0  -95.61834    0  359  -97.19385  -95.61834  1.62%     -  163s
     0     0  -95.82052    0  358  -97.19385  -95.82052  1.41%     -  163s
     0     0  -95.82052    0  358  -97.19385  -95.82052  1.41%     -  163s
     0     0  -95.82052    0  312  -97.19385  -95.82052  1.41%     -  163s
     0     0  -95.82052    0  264  -97.19385  -95.82052  1.41%     -  164s
     0     0  -95.82052    0  345  -97.19385  -95.82052  1.41%     -  164s
     0     0  -95.82052    0  331  -97.19385  -95.82052  1.41%     -  164s
     0     0  -95.82052    0  334  -97.19385  -95.82052  1.41%     -  164s
     0     0  -95.82052    0  335  -97.19385  -95.82052  1.41%     -  164s
     0     0  -96.83142    0  145  -97.19385  -96.83142  0.37%     -  164s
     0     0  -96.83142    0  145  -97.19385  -96.83142  0.37%     -  164s
     0     0  -96.87652    0   98  -97.19385  -96.87652  0.33%     -  164s
     0     0  -96.87652    0   98  -97.19385  -96.87652  0.33%     -  164s
     0     0  -96.87867    0  122  -97.19385  -96.87867  0.32%     -  164s
     0     0  -96.87867    0  122  -97.19385  -96.87867  0.32%     -  164s
     0     0  -96.92355    0   92  -97.19385  -96.92355  0.28%     -  164s
     0     0  -96.92355    0   92  -97.19385  -96.92355  0.28%     -  164s
     0     2  -96.93508    0   92  -97.19385  -96.93508  0.27%     -  165s

Cutting planes:
  Gomory: 9
  Implied bound: 1
  Clique: 2
  Zero half: 28

Explored 6 nodes (41102 simplex iterations) in 165.17 seconds
Thread count was 1 (of 80 available processors)

Solution count 9: -97.1939 -97.1939 -97.1939 ... -4993.12

Optimal solution found (tolerance 1.00e-04)
Best objective -9.719385041213e+01, best bound -9.719385041213e+01, gap 0.0000%
